
Gurobi 9.1.1 (win64, gurobi_cl) logging started Thu May 27 01:31:31 2021

Academic license - for non-commercial use only - expires 2021-07-09
Using license file C:\Users\pcpar\gurobi.lic
Set parameter LogFile to value gurobi.log

Gurobi 9.1.1 (win64, gurobi_cl) logging started Thu May 27 01:31:54 2021

Academic license - for non-commercial use only - expires 2021-07-09
Using license file C:\Users\pcpar\gurobi.lic
Set parameter LogFile to value gurobi.log

Gurobi 9.1.1 (win64, gurobi_cl) logging started Thu May 27 01:33:09 2021

Academic license - for non-commercial use only - expires 2021-07-09
Using license file C:\Users\pcpar\gurobi.lic
Set parameter LogFile to value gurobi.log

Gurobi 9.1.1 (win64, gurobi_cl) logging started Thu May 27 01:34:05 2021

Academic license - for non-commercial use only - expires 2021-07-09
Using license file C:\Users\pcpar\gurobi.lic
Set parameter LogFile to value gurobi.log

Gurobi 9.1.1 (win64, gurobi_cl) logging started Thu May 27 01:34:22 2021

Academic license - for non-commercial use only - expires 2021-07-09
Using license file C:\Users\pcpar\gurobi.lic
Set parameter LogFile to value gurobi.log

Gurobi 9.1.1 (win64, gurobi_cl) logging started Thu May 27 01:34:32 2021

Academic license - for non-commercial use only - expires 2021-07-09
Using license file C:\Users\pcpar\gurobi.lic
Set parameter LogFile to value gurobi.log

Gurobi 9.1.1 (win64, gurobi_cl) logging started Thu May 27 01:35:56 2021

Academic license - for non-commercial use only - expires 2021-07-09
Using license file C:\Users\pcpar\gurobi.lic
Set parameter LogFile to value gurobi.log

Gurobi 9.1.1 (win64, gurobi_cl) logging started Thu May 27 01:36:20 2021

Academic license - for non-commercial use only - expires 2021-07-09
Using license file C:\Users\pcpar\gurobi.lic
Set parameter LogFile to value gurobi.log

Gurobi 9.1.1 (win64, gurobi_cl) logging started Thu May 27 01:36:52 2021

Academic license - for non-commercial use only - expires 2021-07-09
Using license file C:\Users\pcpar\gurobi.lic
Set parameter LogFile to value gurobi.log

Gurobi 9.1.1 (win64, gurobi_cl) logging started Thu May 27 01:37:01 2021

Academic license - for non-commercial use only - expires 2021-07-09
Using license file C:\Users\pcpar\gurobi.lic
Set parameter LogFile to value gurobi.log

Gurobi 9.1.1 (win64, gurobi_cl) logging started Thu May 27 01:37:31 2021

Academic license - for non-commercial use only - expires 2021-07-09
Using license file C:\Users\pcpar\gurobi.lic
Set parameter LogFile to value gurobi.log

Gurobi 9.1.1 (win64, gurobi_cl) logging started Thu May 27 01:38:23 2021

Academic license - for non-commercial use only - expires 2021-07-09
Using license file C:\Users\pcpar\gurobi.lic
Set parameter LogFile to value gurobi.log

Gurobi 9.1.1 (win64, gurobi_cl) logging started Thu May 27 01:38:55 2021

Academic license - for non-commercial use only - expires 2021-07-09
Using license file C:\Users\pcpar\gurobi.lic
Set parameter LogFile to value gurobi.log

Gurobi 9.1.1 (win64, gurobi_cl) logging started Thu May 27 01:40:41 2021

Academic license - for non-commercial use only - expires 2021-07-09
Using license file C:\Users\pcpar\gurobi.lic
Set parameter LogFile to value gurobi.log

Gurobi 9.1.1 (win64, gurobi_cl) logging started Thu May 27 01:42:18 2021

Academic license - for non-commercial use only - expires 2021-07-09
Using license file C:\Users\pcpar\gurobi.lic
Set parameter LogFile to value gurobi.log

Gurobi 9.1.1 (win64, gurobi_cl) logging started Thu May 27 01:42:46 2021

Academic license - for non-commercial use only - expires 2021-07-09
Using license file C:\Users\pcpar\gurobi.lic
Set parameter LogFile to value gurobi.log

Gurobi 9.1.1 (win64, gurobi_cl) logging started Thu May 27 01:43:54 2021

Academic license - for non-commercial use only - expires 2021-07-09
Using license file C:\Users\pcpar\gurobi.lic
Set parameter LogFile to value gurobi.log

Gurobi 9.1.1 (win64, gurobi_cl) logging started Thu May 27 01:49:23 2021

Academic license - for non-commercial use only - expires 2021-07-09
Using license file C:\Users\pcpar\gurobi.lic
Set parameter LogFile to value gurobi.log

Gurobi 9.1.1 (win64, gurobi_cl) logging started Thu May 27 01:52:43 2021

Academic license - for non-commercial use only - expires 2021-07-09
Using license file C:\Users\pcpar\gurobi.lic
Set parameter LogFile to value gurobi.log

Gurobi 9.1.1 (win64, gurobi_cl) logging started Thu May 27 01:54:38 2021

Academic license - for non-commercial use only - expires 2021-07-09
Using license file C:\Users\pcpar\gurobi.lic
Set parameter LogFile to value gurobi.log

Gurobi 9.1.1 (win64, gurobi_cl) logging started Thu May 27 01:55:27 2021

Academic license - for non-commercial use only - expires 2021-07-09
Using license file C:\Users\pcpar\gurobi.lic
Set parameter LogFile to value gurobi.log

Gurobi 9.1.1 (win64, gurobi_cl) logging started Thu May 27 18:26:52 2021

Academic license - for non-commercial use only - expires 2021-07-09
Using license file C:\Users\pcpar\gurobi.lic
Set parameter LogFile to value gurobi.log

Gurobi 9.1.1 (win64, gurobi_cl) logging started Thu May 27 18:27:27 2021

Academic license - for non-commercial use only - expires 2021-07-09
Using license file C:\Users\pcpar\gurobi.lic
Set parameter LogFile to value gurobi.log

Gurobi 9.1.1 (win64, gurobi_cl) logging started Thu May 27 18:27:42 2021

Academic license - for non-commercial use only - expires 2021-07-09
Using license file C:\Users\pcpar\gurobi.lic
Set parameter LogFile to value gurobi.log

Gurobi 9.1.1 (win64, gurobi_cl) logging started Thu May 27 18:27:59 2021

Academic license - for non-commercial use only - expires 2021-07-09
Using license file C:\Users\pcpar\gurobi.lic
Set parameter LogFile to value gurobi.log

Gurobi 9.1.1 (win64, gurobi_cl) logging started Fri May 28 16:54:07 2021

Academic license - for non-commercial use only - expires 2021-07-09
Using license file C:\Users\pcpar\gurobi.lic
Set parameter LogFile to value gurobi.log

Gurobi 9.1.1 (win64, gurobi_cl) logging started Fri May 28 16:54:37 2021

Academic license - for non-commercial use only - expires 2021-07-09
Using license file C:\Users\pcpar\gurobi.lic
Set parameter LogFile to value gurobi.log

Gurobi 9.1.1 (win64, gurobi_cl) logging started Sat May 29 17:40:06 2021

Academic license - for non-commercial use only - expires 2021-07-09
Using license file C:\Users\pcpar\gurobi.lic
Set parameter LogFile to value gurobi.log

Gurobi 9.1.1 (win64, gurobi_cl) logging started Sat May 29 17:40:14 2021

Academic license - for non-commercial use only - expires 2021-07-09
Using license file C:\Users\pcpar\gurobi.lic
Set parameter LogFile to value gurobi.log

Gurobi 9.1.1 (win64, gurobi_cl) logging started Sat May 29 17:48:16 2021

Academic license - for non-commercial use only - expires 2021-07-09
Using license file C:\Users\pcpar\gurobi.lic
Set parameter LogFile to value gurobi.log
